\ENCODING=ISO-8859-1
\Problem name: IloCplex

Minimize
 obj: x145 + x146 + x147 + x148 + x149 + x150 + x151 + x152 + x153 + x154
      + x155 + x156 + x157 + x158 + x159 + x160 + x161 + x162 + x163 + x164
      + x165 + x166 + x167 + x168
Subject To
 c1:   - x1 + x145 >= 0
 c2:   - x2 + x145 >= 0
 c3:   - x3 + x145 >= 0
 c4:   - x4 + x145 >= 0
 c5:   - x5 + x145 >= 0
 c6:   - x6 + x145 >= 0
 c7:   - x7 + x145 >= 0
 c8:   x145 >= 0
 c9:   x145 >= 0
 c10:  x145 >= 0
 c11:  x145 >= 0
 c12:  - x12 + x145 >= 0
 c13:  - x1 - x2 - x3 - x4 - x5 - x6 - x7 - x12 + x145 <= 0
 c14:  - x13 + x146 >= 0
 c15:  - x14 + x146 >= 0
 c16:  - x15 + x146 >= 0
 c17:  - x16 + x146 >= 0
 c18:  - x17 + x146 >= 0
 c19:  - x18 + x146 >= 0
 c20:  - x19 + x146 >= 0
 c21:  x146 >= 0
 c22:  x146 >= 0
 c23:  x146 >= 0
 c24:  x146 >= 0
 c25:  - x24 + x146 >= 0
 c26:  - x13 - x14 - x15 - x16 - x17 - x18 - x19 - x24 + x146 <= 0
 c27:  - x25 + x147 >= 0
 c28:  - x26 + x147 >= 0
 c29:  - x27 + x147 >= 0
 c30:  - x28 + x147 >= 0
 c31:  - x29 + x147 >= 0
 c32:  - x30 + x147 >= 0
 c33:  - x31 + x147 >= 0
 c34:  x147 >= 0
 c35:  x147 >= 0
 c36:  x147 >= 0
 c37:  x147 >= 0
 c38:  - x36 + x147 >= 0
 c39:  - x25 - x26 - x27 - x28 - x29 - x30 - x31 - x36 + x147 <= 0
 c40:  - x37 + x148 >= 0
 c41:  - x38 + x148 >= 0
 c42:  - x39 + x148 >= 0
 c43:  - x40 + x148 >= 0
 c44:  - x41 + x148 >= 0
 c45:  - x42 + x148 >= 0
 c46:  - x43 + x148 >= 0
 c47:  x148 >= 0
 c48:  x148 >= 0
 c49:  x148 >= 0
 c50:  x148 >= 0
 c51:  - x48 + x148 >= 0
 c52:  - x37 - x38 - x39 - x40 - x41 - x42 - x43 - x48 + x148 <= 0
 c53:  - x49 + x149 >= 0
 c54:  - x50 + x149 >= 0
 c55:  - x51 + x149 >= 0
 c56:  - x52 + x149 >= 0
 c57:  - x53 + x149 >= 0
 c58:  - x54 + x149 >= 0
 c59:  - x55 + x149 >= 0
 c60:  x149 >= 0
 c61:  x149 >= 0
 c62:  x149 >= 0
 c63:  x149 >= 0
 c64:  - x60 + x149 >= 0
 c65:  - x49 - x50 - x51 - x52 - x53 - x54 - x55 - x60 + x149 <= 0
 c66:  - x61 + x150 >= 0
 c67:  - x62 + x150 >= 0
 c68:  - x63 + x150 >= 0
 c69:  - x64 + x150 >= 0
 c70:  - x65 + x150 >= 0
 c71:  - x66 + x150 >= 0
 c72:  - x67 + x150 >= 0
 c73:  x150 >= 0
 c74:  x150 >= 0
 c75:  x150 >= 0
 c76:  x150 >= 0
 c77:  - x72 + x150 >= 0
 c78:  - x61 - x62 - x63 - x64 - x65 - x66 - x67 - x72 + x150 <= 0
 c79:  - x73 + x151 >= 0
 c80:  - x74 + x151 >= 0
 c81:  - x75 + x151 >= 0
 c82:  - x76 + x151 >= 0
 c83:  - x77 + x151 >= 0
 c84:  - x78 + x151 >= 0
 c85:  - x79 + x151 >= 0
 c86:  x151 >= 0
 c87:  x151 >= 0
 c88:  x151 >= 0
 c89:  x151 >= 0
 c90:  - x84 + x151 >= 0
 c91:  - x73 - x74 - x75 - x76 - x77 - x78 - x79 - x84 + x151 <= 0
 c92:  - x85 + x152 >= 0
 c93:  - x86 + x152 >= 0
 c94:  - x87 + x152 >= 0
 c95:  - x88 + x152 >= 0
 c96:  - x89 + x152 >= 0
 c97:  - x90 + x152 >= 0
 c98:  - x91 + x152 >= 0
 c99:  x152 >= 0
 c100: x152 >= 0
 c101: x152 >= 0
 c102: x152 >= 0
 c103: - x96 + x152 >= 0
 c104: - x85 - x86 - x87 - x88 - x89 - x90 - x91 - x96 + x152 <= 0
 c105: - x97 + x153 >= 0
 c106: - x98 + x153 >= 0
 c107: - x99 + x153 >= 0
 c108: - x100 + x153 >= 0
 c109: - x101 + x153 >= 0
 c110: - x102 + x153 >= 0
 c111: - x103 + x153 >= 0
 c112: x153 >= 0
 c113: x153 >= 0
 c114: x153 >= 0
 c115: x153 >= 0
 c116: - x108 + x153 >= 0
 c117: - x97 - x98 - x99 - x100 - x101 - x102 - x103 - x108 + x153 <= 0
 c118: - x109 + x154 >= 0
 c119: - x110 + x154 >= 0
 c120: - x111 + x154 >= 0
 c121: - x112 + x154 >= 0
 c122: - x113 + x154 >= 0
 c123: - x114 + x154 >= 0
 c124: - x115 + x154 >= 0
 c125: x154 >= 0
 c126: x154 >= 0
 c127: x154 >= 0
 c128: x154 >= 0
 c129: - x120 + x154 >= 0
 c130: - x109 - x110 - x111 - x112 - x113 - x114 - x115 - x120 + x154 <= 0
 c131: - x121 + x155 >= 0
 c132: - x122 + x155 >= 0
 c133: - x123 + x155 >= 0
 c134: - x124 + x155 >= 0
 c135: - x125 + x155 >= 0
 c136: - x126 + x155 >= 0
 c137: - x127 + x155 >= 0
 c138: x155 >= 0
 c139: x155 >= 0
 c140: x155 >= 0
 c141: x155 >= 0
 c142: - x132 + x155 >= 0
 c143: - x121 - x122 - x123 - x124 - x125 - x126 - x127 - x132 + x155 <= 0
 c144: - x133 + x156 >= 0
 c145: - x134 + x156 >= 0
 c146: - x135 + x156 >= 0
 c147: - x136 + x156 >= 0
 c148: - x137 + x156 >= 0
 c149: - x138 + x156 >= 0
 c150: - x139 + x156 >= 0
 c151: x156 >= 0
 c152: x156 >= 0
 c153: x156 >= 0
 c154: x156 >= 0
 c155: - x144 + x156 >= 0
 c156: - x133 - x134 - x135 - x136 - x137 - x138 - x139 - x144 + x156 <= 0
 c157: x157 >= 0
 c158: x157 >= 0
 c159: x157 >= 0
 c160: x157 >= 0
 c161: x157 >= 0
 c162: x157 >= 0
 c163: x157 >= 0
 c164: - x8 + x157 >= 0
 c165: - x9 + x157 >= 0
 c166: - x10 + x157 >= 0
 c167: - x11 + x157 >= 0
 c168: - x12 + x157 >= 0
 c169: - x8 - x9 - x10 - x11 - x12 + x157 <= 0
 c170: x158 >= 0
 c171: x158 >= 0
 c172: x158 >= 0
 c173: x158 >= 0
 c174: x158 >= 0
 c175: x158 >= 0
 c176: x158 >= 0
 c177: - x20 + x158 >= 0
 c178: - x21 + x158 >= 0
 c179: - x22 + x158 >= 0
 c180: - x23 + x158 >= 0
 c181: - x24 + x158 >= 0
 c182: - x20 - x21 - x22 - x23 - x24 + x158 <= 0
 c183: x159 >= 0
 c184: x159 >= 0
 c185: x159 >= 0
 c186: x159 >= 0
 c187: x159 >= 0
 c188: x159 >= 0
 c189: x159 >= 0
 c190: - x32 + x159 >= 0
 c191: - x33 + x159 >= 0
 c192: - x34 + x159 >= 0
 c193: - x35 + x159 >= 0
 c194: - x36 + x159 >= 0
 c195: - x32 - x33 - x34 - x35 - x36 + x159 <= 0
 c196: x160 >= 0
 c197: x160 >= 0
 c198: x160 >= 0
 c199: x160 >= 0
 c200: x160 >= 0
 c201: x160 >= 0
 c202: x160 >= 0
 c203: - x44 + x160 >= 0
 c204: - x45 + x160 >= 0
 c205: - x46 + x160 >= 0
 c206: - x47 + x160 >= 0
 c207: - x48 + x160 >= 0
 c208: - x44 - x45 - x46 - x47 - x48 + x160 <= 0
 c209: x161 >= 0
 c210: x161 >= 0
 c211: x161 >= 0
 c212: x161 >= 0
 c213: x161 >= 0
 c214: x161 >= 0
 c215: x161 >= 0
 c216: - x56 + x161 >= 0
 c217: - x57 + x161 >= 0
 c218: - x58 + x161 >= 0
 c219: - x59 + x161 >= 0
 c220: - x60 + x161 >= 0
 c221: - x56 - x57 - x58 - x59 - x60 + x161 <= 0
 c222: x162 >= 0
 c223: x162 >= 0
 c224: x162 >= 0
 c225: x162 >= 0
 c226: x162 >= 0
 c227: x162 >= 0
 c228: x162 >= 0
 c229: - x68 + x162 >= 0
 c230: - x69 + x162 >= 0
 c231: - x70 + x162 >= 0
 c232: - x71 + x162 >= 0
 c233: - x72 + x162 >= 0
 c234: - x68 - x69 - x70 - x71 - x72 + x162 <= 0
 c235: x163 >= 0
 c236: x163 >= 0
 c237: x163 >= 0
 c238: x163 >= 0
 c239: x163 >= 0
 c240: x163 >= 0
 c241: x163 >= 0
 c242: - x80 + x163 >= 0
 c243: - x81 + x163 >= 0
 c244: - x82 + x163 >= 0
 c245: - x83 + x163 >= 0
 c246: - x84 + x163 >= 0
 c247: - x80 - x81 - x82 - x83 - x84 + x163 <= 0
 c248: x164 >= 0
 c249: x164 >= 0
 c250: x164 >= 0
 c251: x164 >= 0
 c252: x164 >= 0
 c253: x164 >= 0
 c254: x164 >= 0
 c255: - x92 + x164 >= 0
 c256: - x93 + x164 >= 0
 c257: - x94 + x164 >= 0
 c258: - x95 + x164 >= 0
 c259: - x96 + x164 >= 0
 c260: - x92 - x93 - x94 - x95 - x96 + x164 <= 0
 c261: x165 >= 0
 c262: x165 >= 0
 c263: x165 >= 0
 c264: x165 >= 0
 c265: x165 >= 0
 c266: x165 >= 0
 c267: x165 >= 0
 c268: - x104 + x165 >= 0
 c269: - x105 + x165 >= 0
 c270: - x106 + x165 >= 0
 c271: - x107 + x165 >= 0
 c272: - x108 + x165 >= 0
 c273: - x104 - x105 - x106 - x107 - x108 + x165 <= 0
 c274: x166 >= 0
 c275: x166 >= 0
 c276: x166 >= 0
 c277: x166 >= 0
 c278: x166 >= 0
 c279: x166 >= 0
 c280: x166 >= 0
 c281: - x116 + x166 >= 0
 c282: - x117 + x166 >= 0
 c283: - x118 + x166 >= 0
 c284: - x119 + x166 >= 0
 c285: - x120 + x166 >= 0
 c286: - x116 - x117 - x118 - x119 - x120 + x166 <= 0
 c287: x167 >= 0
 c288: x167 >= 0
 c289: x167 >= 0
 c290: x167 >= 0
 c291: x167 >= 0
 c292: x167 >= 0
 c293: x167 >= 0
 c294: - x128 + x167 >= 0
 c295: - x129 + x167 >= 0
 c296: - x130 + x167 >= 0
 c297: - x131 + x167 >= 0
 c298: - x132 + x167 >= 0
 c299: - x128 - x129 - x130 - x131 - x132 + x167 <= 0
 c300: x168 >= 0
 c301: x168 >= 0
 c302: x168 >= 0
 c303: x168 >= 0
 c304: x168 >= 0
 c305: x168 >= 0
 c306: x168 >= 0
 c307: - x140 + x168 >= 0
 c308: - x141 + x168 >= 0
 c309: - x142 + x168 >= 0
 c310: - x143 + x168 >= 0
 c311: - x144 + x168 >= 0
 c312: - x140 - x141 - x142 - x143 - x144 + x168 <= 0
 c313: 30 x145 + 30 x157 <= 60
 c314: 30 x146 + 30 x158 <= 30
 c315: 30 x147 + 30 x159 <= 30
 c316: 30 x148 + 30 x160 <= 30
 c317: 30 x149 + 30 x161 <= 30
 c318: 30 x150 + 30 x162 <= 30
 c319: 30 x151 + 30 x163 <= 30
 c320: 30 x152 + 30 x164 <= 30
 c321: 30 x153 + 30 x165 <= 30
 c322: 30 x154 + 30 x166 <= 30
 c323: 30 x155 + 30 x167 <= 30
 c324: 30 x156 + 30 x168 <= 30
 c325: x1 + x13 + x25 + x37 + x49 + x61 + x73 + x85 + x97 + x109 + x121 + x133
        = 1
 c326: x2 + x14 + x26 + x38 + x50 + x62 + x74 + x86 + x98 + x110 + x122 + x134
        = 1
 c327: x3 + x15 + x27 + x39 + x51 + x63 + x75 + x87 + x99 + x111 + x123 + x135
        = 1
 c328: x4 + x16 + x28 + x40 + x52 + x64 + x76 + x88 + x100 + x112 + x124 + x136
        = 1
 c329: x5 + x17 + x29 + x41 + x53 + x65 + x77 + x89 + x101 + x113 + x125 + x137
        = 1
 c330: x6 + x18 + x30 + x42 + x54 + x66 + x78 + x90 + x102 + x114 + x126 + x138
        = 1
 c331: x7 + x19 + x31 + x43 + x55 + x67 + x79 + x91 + x103 + x115 + x127 + x139
        = 1
 c332: x8 + x20 + x32 + x44 + x56 + x68 + x80 + x92 + x104 + x116 + x128 + x140
        = 1
 c333: x9 + x21 + x33 + x45 + x57 + x69 + x81 + x93 + x105 + x117 + x129 + x141
        = 1
 c334: x10 + x22 + x34 + x46 + x58 + x70 + x82 + x94 + x106 + x118 + x130
       + x142  = 1
 c335: x11 + x23 + x35 + x47 + x59 + x71 + x83 + x95 + x107 + x119 + x131
       + x143  = 1
 c336: x12 + x24 + x36 + x48 + x60 + x72 + x84 + x96 + x108 + x120 + x132
       + x144  = 1
 c337: x1 + x9 <= 1
 c338: x2 + x10 <= 1
 c339: x3 <= 1
 c340: x4 + x11 <= 1
 c341: x5 + x12 <= 1
 c342: x6 <= 1
 c343: x1 + x9 <= 1
 c344: x2 + x10 <= 1
 c345: x3 <= 1
 c346: x4 + x11 <= 1
 c347: x5 + x12 <= 1
 c348: x6 <= 1
 c349: x7 + x8 <= 1
 c350: x7 + x8 <= 1
 c351: <= 1
 c352: x13 + x21 <= 1
 c353: x14 + x22 <= 1
 c354: x15 <= 1
 c355: x16 + x23 <= 1
 c356: x17 + x24 <= 1
 c357: x18 <= 1
 c358: x13 + x21 <= 1
 c359: x14 + x22 <= 1
 c360: x15 <= 1
 c361: x16 + x23 <= 1
 c362: x17 + x24 <= 1
 c363: x18 <= 1
 c364: x19 + x20 <= 1
 c365: x19 + x20 <= 1
 c366: <= 1
 c367: x25 + x33 <= 1
 c368: x26 + x34 <= 1
 c369: x27 <= 1
 c370: x28 + x35 <= 1
 c371: x29 + x36 <= 1
 c372: x30 <= 1
 c373: x25 + x33 <= 1
 c374: x26 + x34 <= 1
 c375: x27 <= 1
 c376: x28 + x35 <= 1
 c377: x29 + x36 <= 1
 c378: x30 <= 1
 c379: x31 + x32 <= 1
 c380: x31 + x32 <= 1
 c381: <= 1
 c382: x37 + x45 <= 1
 c383: x38 + x46 <= 1
 c384: x39 <= 1
 c385: x40 + x47 <= 1
 c386: x41 + x48 <= 1
 c387: x42 <= 1
 c388: x37 + x45 <= 1
 c389: x38 + x46 <= 1
 c390: x39 <= 1
 c391: x40 + x47 <= 1
 c392: x41 + x48 <= 1
 c393: x42 <= 1
 c394: x43 + x44 <= 1
 c395: x43 + x44 <= 1
 c396: <= 1
 c397: x49 + x57 <= 1
 c398: x50 + x58 <= 1
 c399: x51 <= 1
 c400: x52 + x59 <= 1
 c401: x53 + x60 <= 1
 c402: x54 <= 1
 c403: x49 + x57 <= 1
 c404: x50 + x58 <= 1
 c405: x51 <= 1
 c406: x52 + x59 <= 1
 c407: x53 + x60 <= 1
 c408: x54 <= 1
 c409: x55 + x56 <= 1
 c410: x55 + x56 <= 1
 c411: <= 1
 c412: x61 + x69 <= 1
 c413: x62 + x70 <= 1
 c414: x63 <= 1
 c415: x64 + x71 <= 1
 c416: x65 + x72 <= 1
 c417: x66 <= 1
 c418: x61 + x69 <= 1
 c419: x62 + x70 <= 1
 c420: x63 <= 1
 c421: x64 + x71 <= 1
 c422: x65 + x72 <= 1
 c423: x66 <= 1
 c424: x67 + x68 <= 1
 c425: x67 + x68 <= 1
 c426: <= 1
 c427: x73 + x81 <= 1
 c428: x74 + x82 <= 1
 c429: x75 <= 1
 c430: x76 + x83 <= 1
 c431: x77 + x84 <= 1
 c432: x78 <= 1
 c433: x73 + x81 <= 1
 c434: x74 + x82 <= 1
 c435: x75 <= 1
 c436: x76 + x83 <= 1
 c437: x77 + x84 <= 1
 c438: x78 <= 1
 c439: x79 + x80 <= 1
 c440: x79 + x80 <= 1
 c441: <= 1
 c442: x85 + x93 <= 1
 c443: x86 + x94 <= 1
 c444: x87 <= 1
 c445: x88 + x95 <= 1
 c446: x89 + x96 <= 1
 c447: x90 <= 1
 c448: x85 + x93 <= 1
 c449: x86 + x94 <= 1
 c450: x87 <= 1
 c451: x88 + x95 <= 1
 c452: x89 + x96 <= 1
 c453: x90 <= 1
 c454: x91 + x92 <= 1
 c455: x91 + x92 <= 1
 c456: <= 1
 c457: x97 + x105 <= 1
 c458: x98 + x106 <= 1
 c459: x99 <= 1
 c460: x100 + x107 <= 1
 c461: x101 + x108 <= 1
 c462: x102 <= 1
 c463: x97 + x105 <= 1
 c464: x98 + x106 <= 1
 c465: x99 <= 1
 c466: x100 + x107 <= 1
 c467: x101 + x108 <= 1
 c468: x102 <= 1
 c469: x103 + x104 <= 1
 c470: x103 + x104 <= 1
 c471: <= 1
 c472: x109 + x117 <= 1
 c473: x110 + x118 <= 1
 c474: x111 <= 1
 c475: x112 + x119 <= 1
 c476: x113 + x120 <= 1
 c477: x114 <= 1
 c478: x109 + x117 <= 1
 c479: x110 + x118 <= 1
 c480: x111 <= 1
 c481: x112 + x119 <= 1
 c482: x113 + x120 <= 1
 c483: x114 <= 1
 c484: x115 + x116 <= 1
 c485: x115 + x116 <= 1
 c486: <= 1
 c487: x121 + x129 <= 1
 c488: x122 + x130 <= 1
 c489: x123 <= 1
 c490: x124 + x131 <= 1
 c491: x125 + x132 <= 1
 c492: x126 <= 1
 c493: x121 + x129 <= 1
 c494: x122 + x130 <= 1
 c495: x123 <= 1
 c496: x124 + x131 <= 1
 c497: x125 + x132 <= 1
 c498: x126 <= 1
 c499: x127 + x128 <= 1
 c500: x127 + x128 <= 1
 c501: <= 1
 c502: x133 + x141 <= 1
 c503: x134 + x142 <= 1
 c504: x135 <= 1
 c505: x136 + x143 <= 1
 c506: x137 + x144 <= 1
 c507: x138 <= 1
 c508: x133 + x141 <= 1
 c509: x134 + x142 <= 1
 c510: x135 <= 1
 c511: x136 + x143 <= 1
 c512: x137 + x144 <= 1
 c513: x138 <= 1
 c514: x139 + x140 <= 1
 c515: x139 + x140 <= 1
 c516: <= 1
Bounds
 0 <= x1 <= 1
 0 <= x2 <= 1
 0 <= x3 <= 1
 0 <= x4 <= 1
 0 <= x5 <= 1
 0 <= x6 <= 1
 0 <= x7 <= 1
 0 <= x8 <= 1
 0 <= x9 <= 1
 0 <= x10 <= 1
 0 <= x11 <= 1
 0 <= x12 <= 1
 0 <= x13 <= 1
 0 <= x14 <= 1
 0 <= x15 <= 1
 0 <= x16 <= 1
 0 <= x17 <= 1
 0 <= x18 <= 1
 0 <= x19 <= 1
 0 <= x20 <= 1
 0 <= x21 <= 1
 0 <= x22 <= 1
 0 <= x23 <= 1
 0 <= x24 <= 1
 0 <= x25 <= 1
 0 <= x26 <= 1
 0 <= x27 <= 1
 0 <= x28 <= 1
 0 <= x29 <= 1
 0 <= x30 <= 1
 0 <= x31 <= 1
 0 <= x32 <= 1
 0 <= x33 <= 1
 0 <= x34 <= 1
 0 <= x35 <= 1
 0 <= x36 <= 1
 0 <= x37 <= 1
 0 <= x38 <= 1
 0 <= x39 <= 1
 0 <= x40 <= 1
 0 <= x41 <= 1
 0 <= x42 <= 1
 0 <= x43 <= 1
 0 <= x44 <= 1
 0 <= x45 <= 1
 0 <= x46 <= 1
 0 <= x47 <= 1
 0 <= x48 <= 1
 0 <= x49 <= 1
 0 <= x50 <= 1
 0 <= x51 <= 1
 0 <= x52 <= 1
 0 <= x53 <= 1
 0 <= x54 <= 1
 0 <= x55 <= 1
 0 <= x56 <= 1
 0 <= x57 <= 1
 0 <= x58 <= 1
 0 <= x59 <= 1
 0 <= x60 <= 1
 0 <= x61 <= 1
 0 <= x62 <= 1
 0 <= x63 <= 1
 0 <= x64 <= 1
 0 <= x65 <= 1
 0 <= x66 <= 1
 0 <= x67 <= 1
 0 <= x68 <= 1
 0 <= x69 <= 1
 0 <= x70 <= 1
 0 <= x71 <= 1
 0 <= x72 <= 1
 0 <= x73 <= 1
 0 <= x74 <= 1
 0 <= x75 <= 1
 0 <= x76 <= 1
 0 <= x77 <= 1
 0 <= x78 <= 1
 0 <= x79 <= 1
 0 <= x80 <= 1
 0 <= x81 <= 1
 0 <= x82 <= 1
 0 <= x83 <= 1
 0 <= x84 <= 1
 0 <= x85 <= 1
 0 <= x86 <= 1
 0 <= x87 <= 1
 0 <= x88 <= 1
 0 <= x89 <= 1
 0 <= x90 <= 1
 0 <= x91 <= 1
 0 <= x92 <= 1
 0 <= x93 <= 1
 0 <= x94 <= 1
 0 <= x95 <= 1
 0 <= x96 <= 1
 0 <= x97 <= 1
 0 <= x98 <= 1
 0 <= x99 <= 1
 0 <= x100 <= 1
 0 <= x101 <= 1
 0 <= x102 <= 1
 0 <= x103 <= 1
 0 <= x104 <= 1
 0 <= x105 <= 1
 0 <= x106 <= 1
 0 <= x107 <= 1
 0 <= x108 <= 1
 0 <= x109 <= 1
 0 <= x110 <= 1
 0 <= x111 <= 1
 0 <= x112 <= 1
 0 <= x113 <= 1
 0 <= x114 <= 1
 0 <= x115 <= 1
 0 <= x116 <= 1
 0 <= x117 <= 1
 0 <= x118 <= 1
 0 <= x119 <= 1
 0 <= x120 <= 1
 0 <= x121 <= 1
 0 <= x122 <= 1
 0 <= x123 <= 1
 0 <= x124 <= 1
 0 <= x125 <= 1
 0 <= x126 <= 1
 0 <= x127 <= 1
 0 <= x128 <= 1
 0 <= x129 <= 1
 0 <= x130 <= 1
 0 <= x131 <= 1
 0 <= x132 <= 1
 0 <= x133 <= 1
 0 <= x134 <= 1
 0 <= x135 <= 1
 0 <= x136 <= 1
 0 <= x137 <= 1
 0 <= x138 <= 1
 0 <= x139 <= 1
 0 <= x140 <= 1
 0 <= x141 <= 1
 0 <= x142 <= 1
 0 <= x143 <= 1
 0 <= x144 <= 1
 0 <= x145 <= 1
 0 <= x146 <= 1
 0 <= x147 <= 1
 0 <= x148 <= 1
 0 <= x149 <= 1
 0 <= x150 <= 1
 0 <= x151 <= 1
 0 <= x152 <= 1
 0 <= x153 <= 1
 0 <= x154 <= 1
 0 <= x155 <= 1
 0 <= x156 <= 1
 0 <= x157 <= 1
 0 <= x158 <= 1
 0 <= x159 <= 1
 0 <= x160 <= 1
 0 <= x161 <= 1
 0 <= x162 <= 1
 0 <= x163 <= 1
 0 <= x164 <= 1
 0 <= x165 <= 1
 0 <= x166 <= 1
 0 <= x167 <= 1
 0 <= x168 <= 1
Binaries
 x1  x2  x3  x4  x5  x6  x7  x8  x9  x10  x11  x12  x13  x14  x15  x16  x17 
 x18  x19  x20  x21  x22  x23  x24  x25  x26  x27  x28  x29  x30  x31  x32 
 x33  x34  x35  x36  x37  x38  x39  x40  x41  x42  x43  x44  x45  x46  x47 
 x48  x49  x50  x51  x52  x53  x54  x55  x56  x57  x58  x59  x60  x61  x62 
 x63  x64  x65  x66  x67  x68  x69  x70  x71  x72  x73  x74  x75  x76  x77 
 x78  x79  x80  x81  x82  x83  x84  x85  x86  x87  x88  x89  x90  x91  x92 
 x93  x94  x95  x96  x97  x98  x99  x100  x101  x102  x103  x104  x105  x106 
 x107  x108  x109  x110  x111  x112  x113  x114  x115  x116  x117  x118  x119 
 x120  x121  x122  x123  x124  x125  x126  x127  x128  x129  x130  x131  x132 
 x133  x134  x135  x136  x137  x138  x139  x140  x141  x142  x143  x144  x145 
 x146  x147  x148  x149  x150  x151  x152  x153  x154  x155  x156  x157  x158 
 x159  x160  x161  x162  x163  x164  x165  x166  x167  x168 
End
